clingo version 5.6.2
Reading from ...etition/0020-graph_colouring-130-0.asp ...
Solving...
UNKNOWN

TIME LIMIT   : 1
Models       : 0+
Calls        : 1
Time         : 600.028s (Solving: 599.84s 1st Model: 0.00s Unsat: 0.00s)
CPU Time     : 599.760s

Choices      : 12418733
Conflicts    : 11379384 (Analyzed: 11379384)
Restarts     : 22524    (Average: 505.21 Last: 11318192)
Problems     : 1        (Average Length: 0.00 Splits: 0)
Lemmas       : 11379384 (Deleted: 11332290)
  Binary     : 0        (Ratio:   0.00%)
  Ternary    : 30       (Ratio:   0.00%)
  Conflict   : 11379384 (Average Length:   33.6 Ratio: 100.00%) 
  Loop       : 0        (Average Length:    0.0 Ratio:   0.00%) 
  Other      : 0        (Average Length:    0.0 Ratio:   0.00%) 
Backjumps    : 11379384 (Average:  1.08 Max:  12 Sum: 12234913)
  Executed   : 11379384 (Average:  1.08 Max:  12 Sum: 12234913 Ratio: 100.00%)
  Bounded    : 0        (Average:  0.00 Max:   0 Sum:      0 Ratio:   0.00%)

Rules        : 17584   
Atoms        : 3220    
Bodies       : 1280    
Equivalences : 2531     (Atom=Atom: 13 Body=Body: 630 Other: 1888)
Tight        : Yes
Variables    : 769      (Eliminated:    0 Frozen:    0)
Constraints  : 7092     (Binary:  89.4% Ternary:   0.1% Other:  10.6%)

